10	5
0	5	1	5	3	4	2
1	5	10	6	7	8	9
2	5	7	8	10	6	9
3	5	9	10	7	6	8
4	5	9	10	7	8	6
5	2	9	7
6	1	11
7	1	11
8	1	11
9	1	11
10	1	11
11	0
0	0	0	0	0	0	0
1	3	0	4	2	0	0
2	1	0	4	0	0	0
3	2	3	3	2	0	0
4	1	0	0	1	0	0
5	2	0	0	0	3	0
6	5	2	5	2	4	1
7	4	1	2	0	5	4
8	9	1	0	0	2	0
9	5	0	4	2	0	1
10	5	0	2	3	0	5
11	0	0	0	0	0	0
3	7	6	7	7
